16 1 17 1 19 1 21 1 16 1 17 1 19 1 21 1
14 0 16 0 12 0 17 0 10 0 19 0 09 0 21 0 12 0 14 0 10 0 16 0 09 0 17 0 07 0 19 0
14 0 16 0 12 0 17 0 10 0 19 0 09 0 21 0 12 0 14 0 10 0 16 0 09 0 17 0 07 0 19 0
09 0 16 0 12 0 17 0 10 0 14 0 07 0 16 0 09 0 12 0 05 0 14 0 07 0 10 0 04 0 12 0
09 0 16 0 12 0 17 0 10 0 14 0 07 0 16 0 09 0 12 0 12 0 14 0 09 0 16 0 14 0 17 0
13 0 17 0 21 0 16 0 13 0 17 0 21 0 16 0 13 0 17 0 21 0 16 0 13 0 17 0 21 0 16 0
13 0 17 0 22 0 16 0 13 0 17 0 22 0 16 0 13 0 17 0 22 0 16 0 13 0 17 0 22 0 16 0
13 0 17 0 21 0 16 0 13 0 17 0 21 0 16 0 13 0 17 0 19 0 16 0 13 0 17 0 19 0 16 0
13 0 15 0 22 0 17 0 13 0 15 0 22 0 17 0 10 0 08 0 18 0 15 0 10 0 08 0 18 0 15 0
00 0 06 0 02 0 08 0 00 0 06 0 02 0 08 0
18 5 14 5 16 6 16 3 18 3 18 3 14 3 14 3 16 7 16 5 12 5 14 6 14 3 16 3 16 3 12 3 12 3 14 7